
%HARD
grid_string= array2d(1..7, 1..7, ["1", ".", ".", ".", "5", ".", "4",
".", ".", ".", ".", ".", ".", ".",
".", "3", ".", ".", "7", ".", "4",
".", ".", ".", ".", ".", ".", ".",
".", "3", ".", ".", "6", ".", "4",
".", ".", ".", ".", ".", ".", ".",
".", "1", ".", ".", "1", ".", "1"]);